param set_len = 30;
param target_sum = 211868123;
param values := [0] 28094817 [1] 12033023 [2] 13279241 [3] 13787337 [4] 3764606 [5] 2138119 [6] 32025211 [7] 4408807 [8] 6770761 [9] 31462496 [10] 19485186 [11] 10779867 [12] 4618776 [13] 1137280 [14] 12764808 [15] 4166832 [16] 10640737 [17] 32468267 [18] 5540261 [19] 4301447 [20] 31962246 [21] 12779219 [22] 6694946 [23] 10344571 [24] 29128142 [25] 18359454 [26] 1648933 [27] 13793474 [28] 32735605 [29] 23712964 ;
